\Generated by Cardinal Operations

Maximize
   8 alpha_1 + 3 alpha_2 + 5 alpha_3 
Subject To
 cons_0: alpha_1 + beta_1 <= 1
 cons_1: alpha_2 + beta_2 <= 1
 cons_2: alpha_3 + beta_3 <= 1
 cons_3: alpha_1 + alpha_3 + beta_4 <= 1
 cons_4: alpha_1 + alpha_2 + beta_5 <= 1
Bounds
 alpha_1 free
 alpha_2 free
 alpha_3 free
 -inf <= beta_1 <= 0
 -inf <= beta_2 <= 0
 -inf <= beta_3 <= 0
 -inf <= beta_4 <= 0
 -inf <= beta_5 <= 0
END

